p cnf 21 204
-1 -8 0
-1 -9 0
-1 -10 0
-2 -8 0
-2 -9 0
-2 -10 0
-3 -8 0
-3 -9 0
-3 -10 0
-1 -15 0
-1 -16 0
-1 -17 0
-2 -15 0
-2 -16 0
-2 -17 0
-3 -15 0
-3 -16 0
-3 -17 0
-1 -29 0
-1 -30 0
-1 -31 0
-2 -29 0
-2 -30 0
-2 -31 0
-3 -29 0
-3 -30 0
-3 -31 0
-1 -36 0
-1 -37 0
-1 -38 0
-2 -36 0
-2 -37 0
-2 -38 0
-3 -36 0
-3 -37 0
-3 -38 0
-1 -43 0
-1 -44 0
-1 -45 0
-2 -43 0
-2 -44 0
-2 -45 0
-3 -43 0
-3 -44 0
-3 -45 0
-8 -15 0
-8 -16 0
-8 -17 0
-9 -15 0
-9 -16 0
-9 -17 0
-10 -15 0
-10 -16 0
-10 -17 0
-8 -29 0
-8 -30 0
-8 -31 0
-9 -29 0
-9 -30 0
-9 -31 0
-10 -29 0
-10 -30 0
-10 -31 0
-8 -36 0
-8 -37 0
-8 -38 0
-9 -36 0
-9 -37 0
-9 -38 0
-10 -36 0
-10 -37 0
-10 -38 0
-8 -43 0
-8 -44 0
-8 -45 0
-9 -43 0
-9 -44 0
-9 -45 0
-10 -43 0
-10 -44 0
-10 -45 0
-15 -36 0
-15 -37 0
-15 -38 0
-16 -36 0
-16 -37 0
-16 -38 0
-17 -36 0
-17 -37 0
-17 -38 0
-15 -43 0
-15 -44 0
-15 -45 0
-16 -43 0
-16 -44 0
-16 -45 0
-17 -43 0
-17 -44 0
-17 -45 0
-22 -29 0
-22 -30 0
-22 -31 0
-23 -29 0
-23 -30 0
-23 -31 0
-24 -29 0
-24 -30 0
-24 -31 0
-29 -43 0
-29 -44 0
-29 -45 0
-30 -43 0
-30 -44 0
-30 -45 0
-31 -43 0
-31 -44 0
-31 -45 0
-1 -8 0
-1 -15 0
-1 -22 0
-1 -29 0
-1 -36 0
-1 -43 0
-8 -15 0
-8 -22 0
-8 -29 0
-8 -36 0
-8 -43 0
-15 -22 0
-15 -29 0
-15 -36 0
-15 -43 0
-22 -29 0
-22 -36 0
-22 -43 0
-29 -36 0
-29 -43 0
-36 -43 0
1 8 15 22 29 36 43 0
-2 -9 0
-2 -16 0
-2 -23 0
-2 -30 0
-2 -37 0
-2 -44 0
-9 -16 0
-9 -23 0
-9 -30 0
-9 -37 0
-9 -44 0
-16 -23 0
-16 -30 0
-16 -37 0
-16 -44 0
-23 -30 0
-23 -37 0
-23 -44 0
-30 -37 0
-30 -44 0
-37 -44 0
2 9 16 23 30 37 44 0
-3 -10 0
-3 -17 0
-3 -24 0
-3 -31 0
-3 -38 0
-3 -45 0
-10 -17 0
-10 -24 0
-10 -31 0
-10 -38 0
-10 -45 0
-17 -24 0
-17 -31 0
-17 -38 0
-17 -45 0
-24 -31 0
-24 -38 0
-24 -45 0
-31 -38 0
-31 -45 0
-38 -45 0
3 10 17 24 31 38 45 0
-1 -2 0
-1 -3 0
-2 -3 0
-8 -9 0
-8 -10 0
-9 -10 0
-15 -16 0
-15 -17 0
-16 -17 0
-22 -23 0
-22 -24 0
-23 -24 0
-29 -30 0
-29 -31 0
-30 -31 0
-36 -37 0
-36 -38 0
-37 -38 0
-43 -44 0
-43 -45 0
-44 -45 0
